NAME : cgl_51b.4991.tour
COMMENT : Length = 4991
COMMENT : Found by LKH-3 [Keld Helsgaun] Fri Nov  8 19:20:30 2024
TYPE : TOUR
DIMENSION : 51
TOUR_SECTION
33
32
31
49
50
43
44
46
45
48
47
51
1
4
3
2
30
29
27
28
25
24
26
23
22
21
19
20
14
15
12
7
10
8
11
6
9
5
13
17
16
18
37
39
38
40
42
41
36
35
34
-1
EOF
